

variable        NAME index lmp
log             ${NAME}.log
variable        mytemp index 298.15
variable        mypressure index 1.0
variable        dumpN index 2000



units real
atom_style full
boundary p p p
bond_style harmonic
angle_style harmonic
dihedral_style charmm
improper_style cvff
pair_style lj/cut/coul/long 12
kspace_style pppm 1e-5
pair_modify tail yes mix arithmetic

special_bonds amber


read_data cubic_box.data

neighbor        2.0 bin
neigh_modify    delay 0 every 1 check yes page 1000000 one 20000
timestep        1.0

velocity all create ${mytemp} 216489 units box mom yes

thermo_style custom step temp vol press pe ke etotal epair evdwl ecoul elong emol ebond eangle edihed eimp enthalpy density lx ly lz
thermo ${dumpN}

minimize 1e-4 1e-6 10000 10000

reset_timestep 0

fix NPT all npt temp ${mytemp} ${mytemp} 100.0 iso ${mypressure} ${mypressure} 100.0

restart ${dumpN} restart1.${NAME} restart2.${NAME}

variable a loop 2000
label loop
run 10000 post no
next a
jump SELF loop

write_data restart.${NAME}_eq.data

log ${NAME}_corr.log

reset_timestep 0
compute MSD all msd
fix MSDfix_corr all ave/time 10 1 10 c_MSD[*] file ${NAME}_corr.msd
thermo 10
dump DUMP_corr all xtc 10 ${NAME}_corr.xtc
dump_modify DUMP_corr unwrap yes precision 1000000 delay 10
#dump DUMP_corr all custom 10 ${NAME}_corr.lammpstrj id type xu yu zu mol
#dump_modify DUMP_corr format float %.6f delay 10

run 100000

undump DUMP_corr
uncompute MSD
unfix MSDfix_corr

log ${NAME}_prod.log

reset_timestep 0
compute MSD all msd
fix MSDfix_prod all ave/time ${dumpN} 1 ${dumpN} c_MSD[*] file ${NAME}_prod.msd
thermo ${dumpN}
dump DUMP_prod all xtc ${dumpN} ${NAME}_prod.xtc
dump_modify DUMP_prod unwrap yes precision 1000000 delay ${dumpN}
#dump DUMP_prod all custom ${dumpN} ${NAME}_prod.lammpstrj id type xu yu zu mol
#dump_modify DUMP_prod format float %.6f delay ${dumpN}


compute COM all com

fix prp all ave/time ${dumpN} 1 ${dumpN} c_COM[*] file ${NAME}.com


run 100000000

write_restart   restart.${NAME}
write_data      restart.${NAME}.data
